p cnf 390 709
-277 0
-278 0
-279 0
-280 0
-281 0
-282 0
-179 275 0
-275 179 0
-283 -284 0
-189 284 0
-190 283 0
-283 190 0
-284 189 0
-287 292 293 294 295 296 0
-292 -293 0
-292 -294 0
-292 -295 0
-292 -296 0
-293 -294 0
-293 -295 0
-293 -296 0
-294 -295 0
-294 -296 0
-295 -296 0
-287 297 298 299 300 301 302 303 0
-297 -298 0
-297 -299 0
-297 -300 0
-297 -301 0
-297 -302 0
-297 -303 0
-298 -299 0
-298 -300 0
-298 -301 0
-298 -302 0
-298 -303 0
-299 -300 0
-299 -301 0
-299 -302 0
-299 -303 0
-300 -301 0
-300 -302 0
-300 -303 0
-301 -302 0
-301 -303 0
-302 -303 0
-287 304 305 306 307 308 309 310 311 0
-304 -305 0
-304 -306 0
-304 -307 0
-304 -308 0
-304 -309 0
-304 -310 0
-304 -311 0
-305 -306 0
-305 -307 0
-305 -308 0
-305 -309 0
-305 -310 0
-305 -311 0
-306 -307 0
-306 -308 0
-306 -309 0
-306 -310 0
-306 -311 0
-307 -308 0
-307 -309 0
-307 -310 0
-307 -311 0
-308 -309 0
-308 -310 0
-308 -311 0
-309 -310 0
-309 -311 0
-310 -311 0
-287 290 0
-287 291 0
-287 289 0
-286 -287 0
-295 -297 -289 242 0
-295 -302 -289 218 0
-295 -298 -289 219 0
-293 -301 -289 220 0
-295 -303 -289 221 0
-292 -298 -289 223 0
-294 -298 -289 245 0
-296 -301 -289 246 0
-294 -303 -289 225 0
-295 -300 -289 229 0
-294 -301 -289 230 0
-292 -301 -289 247 0
-296 -302 -289 231 0
-296 -298 -289 249 0
-292 -302 -289 250 0
-295 -299 -289 233 0
-293 -298 -289 234 0
-296 -297 -289 235 0
-296 -299 -289 236 0
-293 -303 -289 251 0
-296 -303 -289 238 0
-295 -301 -289 240 0
-292 -303 -289 252 0
-293 -299 -289 253 0
-292 -299 -289 254 0
-295 -290 105 0
-304 -291 228 0
-310 -291 237 0
-308 -291 244 0
-309 -291 232 0
-307 -291 241 0
-306 -291 226 0
-287 295 0
-287 -311 0
-287 -305 0
-287 -296 -300 0
-287 -292 -297 0
-287 -292 -300 0
-287 -294 -302 0
-287 -294 -297 0
-287 -294 -300 0
-287 -294 -299 0
-287 -293 -302 0
-287 -293 -297 0
-287 -293 -300 0
-287 -295 -310 0
-287 -296 -310 0
-287 -296 -307 0
-287 -292 -304 0
-287 -292 -310 0
-287 -292 -307 0
-287 -294 -304 0
-287 -294 -306 0
-287 -294 -309 0
-287 -294 -310 0
-287 -294 -307 0
-287 -293 -304 0
-287 -293 -309 0
-287 -293 -310 0
-287 -293 -307 0
-214 287 0
-213 286 0
-286 213 0
-287 214 0
-312 316 0
-314 316 0
-313 -316 0
-315 -316 0
-218 317 -287 -295 302 0
-218 317 -287 295 0
-218 317 287 0
218 -317 -287 -295 309 0
218 -317 -287 295 0
218 -317 287 0
-219 318 -287 -295 298 0
-219 318 -287 295 0
-219 318 287 0
219 -318 0
-220 319 -287 -293 301 0
-220 319 -287 293 0
-220 319 287 0
220 -319 -287 -293 308 0
220 -319 -287 293 0
220 -319 287 0
-280 320 0
280 -320 -287 303 0
280 -320 287 0
-277 321 0
277 -321 -287 299 0
277 -321 287 0
-221 322 -287 -295 303 0
-221 322 -287 295 0
-221 322 287 0
221 -322 0
-223 323 -287 -292 298 0
-223 323 -287 292 0
-223 323 287 0
223 -323 0
-225 324 -287 -294 303 0
-225 324 -287 294 0
-225 324 287 0
225 -324 0
-226 325 -287 306 0
-226 325 287 0
226 -325 0
-228 326 -287 304 0
-228 326 287 0
228 -326 0
-229 327 -287 -295 300 0
-229 327 -287 295 0
-229 327 287 0
229 -327 -287 -295 307 0
229 -327 -287 295 0
229 -327 287 0
-230 328 -287 -294 301 0
-230 328 -287 294 0
-230 328 287 0
230 -328 -287 -294 308 0
230 -328 -287 294 0
230 -328 287 0
-105 329 -287 295 0
-105 329 287 0
105 -329 0
-231 330 -287 -296 302 0
-231 330 -287 296 0
-231 330 287 0
231 -330 -287 -296 309 0
231 -330 -287 296 0
231 -330 287 0
-232 331 -287 309 0
-232 331 287 0
232 -331 0
-281 332 0
281 -332 -287 302 0
281 -332 287 0
-278 333 0
278 -333 -287 300 0
278 -333 287 0
-233 334 -287 -295 299 0
-233 334 -287 295 0
-233 334 287 0
233 -334 -287 -295 306 0
233 -334 -287 295 0
233 -334 287 0
-234 335 -287 -293 298 0
-234 335 -287 293 0
-234 335 287 0
234 -335 0
-235 336 -287 -296 297 0
-235 336 -287 296 0
-235 336 287 0
235 -336 -287 -296 304 0
235 -336 -287 296 0
235 -336 287 0
-236 337 -287 -296 299 0
-236 337 -287 296 0
-236 337 287 0
236 -337 -287 -296 306 0
236 -337 -287 296 0
236 -337 287 0
-237 338 -287 310 0
-237 338 287 0
237 -338 -287 295 0
237 -338 287 0
-238 339 -287 -296 303 0
-238 339 -287 296 0
-238 339 287 0
238 -339 0
-240 340 -287 -295 301 0
-240 340 -287 295 0
-240 340 287 0
240 -340 -287 -295 308 0
240 -340 -287 295 0
240 -340 287 0
-241 341 -287 307 0
-241 341 287 0
241 -341 0
-242 342 -287 -295 297 0
-242 342 -287 295 0
-242 342 287 0
242 -342 -287 -295 304 0
242 -342 -287 295 0
242 -342 287 0
-115 343 0
115 -343 -287 298 0
115 -343 287 0
-244 344 -287 308 0
-244 344 287 0
244 -344 0
-245 345 -287 -294 298 0
-245 345 -287 294 0
-245 345 287 0
245 -345 0
-246 346 -287 -296 301 0
-246 346 -287 296 0
-246 346 287 0
246 -346 -287 -296 308 0
246 -346 -287 296 0
246 -346 287 0
-247 347 -287 -292 301 0
-247 347 -287 292 0
-247 347 287 0
247 -347 -287 -292 308 0
247 -347 -287 292 0
247 -347 287 0
-249 348 -287 -296 298 0
-249 348 -287 296 0
-249 348 287 0
249 -348 0
-250 349 -287 -292 302 0
-250 349 -287 292 0
-250 349 287 0
250 -349 -287 -292 309 0
250 -349 -287 292 0
250 -349 287 0
-279 350 0
279 -350 -287 301 0
279 -350 287 0
-282 351 0
282 -351 -287 297 0
282 -351 287 0
-251 352 -287 -293 303 0
-251 352 -287 293 0
-251 352 287 0
251 -352 0
-252 353 -287 -292 303 0
-252 353 -287 292 0
-252 353 287 0
252 -353 0
-253 354 -287 -293 299 0
-253 354 -287 293 0
-253 354 287 0
253 -354 -287 -293 306 0
253 -354 -287 293 0
253 -354 287 0
-254 355 -287 -292 299 0
-254 355 -287 292 0
-254 355 287 0
254 -355 -287 -292 306 0
254 -355 -287 292 0
254 -355 287 0
-313 366 367 368 369 370 0
-366 -367 0
-366 -368 0
-366 -369 0
-366 -370 0
-367 -368 0
-367 -369 0
-367 -370 0
-368 -369 0
-368 -370 0
-369 -370 0
-313 371 372 373 374 375 376 377 378 0
-371 -372 0
-371 -373 0
-371 -374 0
-371 -375 0
-371 -376 0
-371 -377 0
-371 -378 0
-372 -373 0
-372 -374 0
-372 -375 0
-372 -376 0
-372 -377 0
-372 -378 0
-373 -374 0
-373 -375 0
-373 -376 0
-373 -377 0
-373 -378 0
-374 -375 0
-374 -376 0
-374 -377 0
-374 -378 0
-375 -376 0
-375 -377 0
-375 -378 0
-376 -377 0
-376 -378 0
-377 -378 0
-313 356 0
-313 364 0
-314 224 0
-314 343 0
-315 371 372 373 374 375 376 377 378 0
-371 -372 0
-371 -373 0
-371 -374 0
-371 -375 0
-371 -376 0
-371 -377 0
-371 -378 0
-372 -373 0
-372 -374 0
-372 -375 0
-372 -376 0
-372 -377 0
-372 -378 0
-373 -374 0
-373 -375 0
-373 -376 0
-373 -377 0
-373 -378 0
-374 -375 0
-374 -376 0
-374 -377 0
-374 -378 0
-375 -376 0
-375 -377 0
-375 -378 0
-376 -377 0
-376 -378 0
-377 -378 0
-315 366 367 368 369 370 0
-366 -367 0
-366 -368 0
-366 -369 0
-366 -370 0
-367 -368 0
-367 -369 0
-367 -370 0
-368 -369 0
-368 -370 0
-369 -370 0
-315 363 0
-315 359 0
-312 -313 0
-312 -314 0
-312 -315 0
-313 -314 0
-313 -315 0
-314 -315 0
-366 -356 351 0
-369 -356 329 0
-368 -356 321 0
-367 -356 332 0
-370 -356 333 0
-295 357 -329 0
-298 -358 343 0
-303 -358 320 0
-299 -358 321 0
-302 -358 332 0
-300 -358 333 0
-301 -358 350 0
-297 -358 351 0
-372 -359 343 0
-377 -359 329 0
-378 -359 320 0
-373 -359 321 0
-376 -359 332 0
-374 -359 333 0
-375 -359 350 0
-371 -359 351 0
-295 -304 -360 342 0
-295 -309 -360 317 0
-293 -308 -360 319 0
-296 -308 -360 346 0
-295 -307 -360 327 0
-294 -308 -360 328 0
-292 -308 -360 347 0
-296 -309 -360 330 0
-292 -309 -360 349 0
-295 -306 -360 334 0
-296 -304 -360 336 0
-296 -306 -360 337 0
-295 -308 -360 340 0
-293 -306 -360 354 0
-292 -306 -360 355 0
-295 -297 361 -342 0
-295 -302 361 -317 0
-295 -298 361 -318 0
-293 -301 361 -319 0
-295 -303 361 -322 0
-292 -298 361 -323 0
-294 -298 361 -345 0
-296 -301 361 -346 0
-294 -303 361 -324 0
-295 -300 361 -327 0
-294 -301 361 -328 0
-292 -301 361 -347 0
-296 -302 361 -330 0
-296 -298 361 -348 0
-292 -302 361 -349 0
-295 -299 361 -334 0
-293 -298 361 -335 0
-296 -297 361 -336 0
-296 -299 361 -337 0
-293 -303 361 -352 0
-296 -303 361 -339 0
-295 -301 361 -340 0
-292 -303 361 -353 0
-293 -299 361 -354 0
-292 -299 361 -355 0
-304 362 -326 0
-310 362 -338 0
-308 362 -344 0
-309 362 -331 0
-307 362 -341 0
-306 362 -325 0
-366 -363 222 0
-370 -363 216 0
-367 -363 217 0
-368 -363 243 0
-369 -363 239 0
-375 -364 227 0
-374 -364 216 0
-376 -364 217 0
-372 -364 248 0
-371 -364 222 0
-373 -364 243 0
-377 -364 239 0
-378 -364 224 0
-295 -365 338 0
-379 304 -297 0
-379 -304 297 0
-379 305 -298 0
-379 -305 298 0
-379 306 -299 0
-379 -306 299 0
-379 307 -300 0
-379 -307 300 0
-379 308 -301 0
-379 -308 301 0
-379 309 -302 0
-379 -309 302 0
-379 311 -303 0
-379 -311 303 0
-304 -297 379 0
-305 -298 379 0
-306 -299 379 0
-307 -300 379 0
-308 -301 379 0
-309 -302 379 0
-311 -303 379 0
-310 -379 0
-380 304 -292 0
-380 -304 292 0
-380 309 -293 0
-380 -309 293 0
-380 306 -294 0
-380 -306 294 0
-380 310 -295 0
-380 -310 295 0
-380 307 -296 0
-380 -307 296 0
-304 -292 380 0
-309 -293 380 0
-306 -294 380 0
-310 -295 380 0
-307 -296 380 0
-308 -380 0
-305 -380 0
-311 -380 0
-287 -362 380 0
-287 358 0
-287 365 0
-381 297 -304 0
-381 -297 304 0
-381 298 -305 0
-381 -298 305 0
-381 299 -306 0
-381 -299 306 0
-381 300 -307 0
-381 -300 307 0
-381 301 -308 0
-381 -301 308 0
-381 302 -309 0
-381 -302 309 0
-381 303 -311 0
-381 -303 311 0
-297 -304 381 0
-298 -305 381 0
-299 -306 381 0
-300 -307 381 0
-301 -308 381 0
-302 -309 381 0
-303 -311 381 0
-310 -381 0
-287 -361 381 0
-287 360 0
-382 292 -297 0
-382 -292 297 0
-382 293 -302 0
-382 -293 302 0
-382 294 -299 0
-382 -294 299 0
-382 296 -300 0
-382 -296 300 0
-292 -297 382 0
-293 -302 382 0
-294 -299 382 0
-296 -300 382 0
-295 -382 0
-301 -382 0
-298 -382 0
-303 -382 0
-287 -357 382 0
-313 -367 -377 0
-313 -367 -376 0
-313 -367 -374 0
-313 -367 -371 0
-313 -370 -377 0
-313 -370 -374 0
-313 -368 -377 0
-313 -368 -376 0
-313 -368 -374 0
-313 -368 -373 0
-313 -368 -371 0
-313 -366 -377 0
-313 -366 -374 0
-313 -366 -371 0
-313 -369 -377 0
-315 -367 -377 0
-315 -367 -376 0
-315 -367 -374 0
-315 -367 -371 0
-315 -370 -377 0
-315 -370 -374 0
-315 -368 -377 0
-315 -368 -376 0
-315 -368 -374 0
-315 -368 -373 0
-315 -368 -371 0
-315 -366 -377 0
-315 -366 -374 0
-315 -366 -371 0
-315 -369 -377 0
-214 313 314 315 0
-213 312 0
-313 214 0
-314 214 0
-315 214 0
-312 213 0
-216 151 -316 0
216 -151 -316 0
-217 152 -316 0
217 -152 -316 0
-318 154 -316 0
318 -154 -316 0
-319 155 -316 0
319 -155 -316 0
-321 385 -316 0
321 -385 -316 0
-322 156 -316 0
322 -156 -316 0
-323 158 -316 0
323 -158 -316 0
-224 159 -316 0
224 -159 -316 0
-324 160 -316 0
324 -160 -316 0
-327 10 -316 0
327 -10 -316 0
-329 162 -316 0
329 -162 -316 0
-330 163 -316 0
330 -163 -316 0
-331 270 -316 0
331 -270 -316 0
-333 386 -316 0
333 -386 -316 0
-336 11 -316 0
336 -11 -316 0
-338 271 -316 0
338 -271 -316 0
-339 167 -316 0
339 -167 -316 0
-342 170 -316 0
342 -170 -316 0
-343 171 -316 0
343 -171 -316 0
-243 172 -316 0
243 -172 -316 0
-344 273 -316 0
344 -273 -316 0
-345 12 -316 0
345 -12 -316 0
-347 174 -316 0
347 -174 -316 0
-248 274 -316 0
248 -274 -316 0
-350 387 -316 0
350 -387 -316 0
-352 176 -316 0
352 -176 -316 0
-317 153 -316 0
317 -153 -316 0
-320 388 -316 0
320 -388 -316 0
-222 157 -316 0
222 -157 -316 0
-325 267 -316 0
325 -267 -316 0
-227 268 -316 0
227 -268 -316 0
-326 269 -316 0
326 -269 -316 0
-328 161 -316 0
328 -161 -316 0
-332 389 -316 0
332 -389 -316 0
-334 164 -316 0
334 -164 -316 0
-335 165 -316 0
335 -165 -316 0
-337 166 -316 0
337 -166 -316 0
-239 168 -316 0
239 -168 -316 0
-340 169 -316 0
340 -169 -316 0
-341 272 -316 0
341 -272 -316 0
-346 173 -316 0
346 -173 -316 0
-348 175 -316 0
348 -175 -316 0
-349 13 -316 0
349 -13 -316 0
-351 390 -316 0
351 -390 -316 0
-353 177 -316 0
353 -177 -316 0
-354 14 -316 0
354 -14 -316 0
-355 178 -316 0
355 -178 -316 0
-265 383 0
-383 265 0
a 316 0
